
Welcome to IBM(R) ILOG(R) CPLEX(R) Interactive Optimizer 22.1.1.0
  with Simplex, Mixed Integer & Barrier Optimizers
5725-A06 5725-A29 5724-Y48 5724-Y49 5724-Y54 5724-Y55 5655-Y21
Copyright IBM Corp. 1988, 2022.  All Rights Reserved.

Type 'help' for a list of available commands.
Type 'help' followed by a command name for more
information on commands.

CPLEX> Selected objective sense:  MINIMIZE
Selected objective  name:  00000000
Selected RHS        name:  RHS1
Selected bound      name:  BOUND
Problem 'ee.mps' read.
Read time = 0.02 sec. (3.14 ticks)
CPLEX> New value for time limit in seconds: 7200
CPLEX> New value for parallel optimization mode: -1
CPLEX> New value for default parallel thread count: 40
CPLEX> New value for mixed integer optimality gap tolerance: 1e-13
CPLEX> Version identifier: 22.1.1.0 | 2022-11-28 | 9160aff4d
CPXPARAM_Threads                                 40
CPXPARAM_Parallel                                -1
CPXPARAM_TimeLimit                               7200
CPXPARAM_MIP_Tolerances_MIPGap                   1e-13
Found incumbent of value 0.000000 after 0.00 sec. (0.31 ticks)
Tried aggregator 2 times.
MIP Presolve eliminated 184 rows and 2745 columns.
MIP Presolve modified 5862 coefficients.
Aggregator did 713 substitutions.
Reduced MIP has 3624 rows, 7744 columns, and 28667 nonzeros.
Reduced MIP has 7744 binaries, 0 generals, 0 SOSs, and 0 indicators.
Presolve time = 0.07 sec. (68.79 ticks)
Probing time = 0.03 sec. (5.30 ticks)
Tried aggregator 1 time.
Detecting symmetries...
Reduced MIP has 3624 rows, 7744 columns, and 28667 nonzeros.
Reduced MIP has 7744 binaries, 0 generals, 0 SOSs, and 0 indicators.
Presolve time = 0.03 sec. (21.92 ticks)
Probing time = 0.02 sec. (5.09 ticks)
Clique table members: 18558.
MIP emphasis: balance optimality and feasibility.
MIP search method: dynamic search.
Parallel mode: opportunistic, using up to 40 threads.
Root relaxation solution time = 0.11 sec. (83.64 ticks)

        Nodes                                         Cuts/
   Node  Left     Objective  IInf  Best Integer    Best Bound    ItCnt     Gap

*     0+    0                            0.0000  -1.31000e+13              --- 
*     0+    0                      -2.20000e+12  -1.31000e+13           495.46%
*     0+    0                      -3.30000e+12  -1.31000e+13           296.97%
*     0+    0                      -4.40000e+12  -1.31000e+13           197.73%
*     0+    0                      -5.50000e+12  -1.31000e+13           138.18%
      0     0  -1.30900e+13   106  -5.50000e+12  -1.30900e+13     1998  138.00%
*     0+    0                      -1.30900e+13  -1.30900e+13             0.00%
      0     0  -1.30900e+13   234  -1.30900e+13      Cuts: 87     2807    0.00%
      0     0  -1.30900e+13   246  -1.30900e+13      Cuts: 99     3264    0.00%
*     0+    0                      -1.30900e+13  -1.30900e+13             0.00%
*     0+    0                      -1.30900e+13  -1.30900e+13             0.00%
*     0+    0                      -1.30900e+13  -1.30900e+13             0.00%
      0     0  -1.00000e+75     0  -1.30900e+13  -1.30900e+13     3264    0.00%
      0     2  -1.30900e+13   245  -1.30900e+13  -1.30900e+13     3264    0.00%
Elapsed time = 2.58 sec. (1411.18 ticks, tree = 0.02 MB, solutions = 9)
     63    45  -1.30900e+13   245  -1.30900e+13  -1.30900e+13    15343    0.00%
*   112+   30                      -1.30900e+13  -1.30900e+13             0.00%
*   116+   30                      -1.30900e+13  -1.30900e+13             0.00%
*   125+   30                      -1.30900e+13  -1.30900e+13             0.00%
*   151+  108                      -1.30900e+13  -1.30900e+13             0.00%
    160    80    infeasible        -1.30900e+13  -1.30900e+13    31925    0.00%
    290    83  -1.30900e+13   189  -1.30900e+13  -1.30900e+13    34238    0.00%
    451   144        cutoff        -1.30900e+13  -1.30900e+13   105260    0.00%
    571   168  -1.30900e+13   193  -1.30900e+13  -1.30900e+13   137269    0.00%
    665   273  -1.30900e+13   138  -1.30900e+13  -1.30900e+13   273322    0.00%
    834   289  -1.30900e+13   124  -1.30900e+13  -1.30900e+13   337487    0.00%
   1011   293  -1.30900e+13    78  -1.30900e+13  -1.30900e+13   338523    0.00%
   1189   227  -1.30900e+13   152  -1.30900e+13  -1.30900e+13   239611    0.00%
   2161   306        cutoff        -1.30900e+13  -1.30900e+13   459083    0.00%
Elapsed time = 7.94 sec. (4522.06 ticks, tree = 1.00 MB, solutions = 26)
*  3005   342      integral     0  -1.30900e+13  -1.30900e+13   860836    0.00%
   3906   256        cutoff        -1.30900e+13  -1.30900e+13   914819    0.00%
   5583   326  -1.30900e+13   158  -1.30900e+13  -1.30900e+13   751147    0.00%
   6557   293        cutoff        -1.30900e+13  -1.30900e+13   903675    0.00%

GUB cover cuts applied:  5
Clique cuts applied:  14
Cover cuts applied:  1207
Flow cuts applied:  9
Mixed integer rounding cuts applied:  10
Zero-half cuts applied:  7
Lift and project cuts applied:  4
Gomory fractional cuts applied:  28

Root node processing (before b&c):
  Real time             =    1.57 sec. (1397.17 ticks)
Parallel b&c, 40 threads:
  Real time             =   11.31 sec. (6872.38 ticks)
  Sync time (average)   =    3.08 sec.
  Wait time (average)   =    0.00 sec.
                          ------------
Total (root+branch&cut) =   12.88 sec. (8269.54 ticks)

Solution pool: 37 solutions saved.

MIP - Integer optimal solution:  Objective = -1.3089998789e+13
Solution time =   13.02 sec.  Iterations = 1065480  Nodes = 7144
Deterministic time = 8269.58 ticks  (635.35 ticks/sec)

CPLEX> Solution 'p38' written to file 'ee.sol'.
CPLEX> 